ssat_solver_solve2
#level: 2
Abc_NtkNodeNum(s->pNtk): 145  , BDD limit: 10240
Build BDD success
level 1: 5 element
Exist
level 0: 5 element
Random
c ssat solving in ABC
#var: 10
s SATISFIABLE
  > Upper bound = 6.875000e-01
  > Lower bound = 6.875000e-01
FINISHED CPU 0.04 MEM 57996 MAXMEM 57996 STALE 1 MAXMEM_RSS 16164
<time name="ALL">130</time>
real 1.05
user 0.30
sys 0.50
